c                  
c  ╔╗ ╦  ╦ ╦╔═  ╦  
c  ╠╩╗║  ║ ║║╣  ║  
c  ╚═╝╩═╝╚═╝╚═╝ ╩  
c www.peqnp.science
c                  
c VRS : 119
c CLS : 257
c RHO : 2.1597
c 48.74% 	 c 47.90% 	 c 46.22% 	 c 8.40% 	 c 7.56% 	 c 5.04% 	 c 1.68% 	 
c TIM : 0.040000(s)
s UNSATISFIABLE
